(set-info :smt-lib-version 2.6)
(set-logic UFLIA)
(set-info :source |
Generated by: Geoff Sutcliffe
Generated on: 2026-03-11
Generator: TPTPWorld
Application: Benchmarking automated theorem provers
Time limit: 120.0

These benchmarks are translations from the TPTP Library (Thousands of
Problems for Theorem Provers), see http://www.cs.miami.edu/~tptp/

The TPTP is maintained by Geoff Sutcliffe, and he contributed this
selection of benchmarks to SMT-LIB.  They were exported from the
v9.2.1 realease of TPTP.
|)
(set-info :category "industrial")
(set-info :status "unknown")
; SZS status Success
(declare-sort $$unsorted 0)

(declare-sort tptp.time 0)
(declare-sort tptp.fluent 0)
(declare-sort tptp.event 0)
(declare-fun tptp.startedIn (tptp.time tptp.fluent tptp.time) Bool)
(declare-fun tptp.stoppedIn (tptp.time tptp.fluent tptp.time) Bool)
(declare-fun tptp.happens (tptp.event tptp.time) Bool)
(declare-fun tptp.initiates (tptp.event tptp.fluent tptp.time) Bool)
(declare-fun tptp.terminates (tptp.event tptp.fluent tptp.time) Bool)
(declare-fun tptp.releases (tptp.event tptp.fluent tptp.time) Bool)
(declare-fun tptp.trajectory (tptp.fluent tptp.time tptp.fluent Int) Bool)
(declare-fun tptp.antitrajectory (tptp.fluent tptp.time tptp.fluent Int) Bool)
(declare-fun tptp.holdsAt (tptp.fluent tptp.time) Bool)
(declare-fun tptp.releasedAt (tptp.fluent tptp.time) Bool)
(declare-fun tptp.at_time (Int) tptp.time)
(assert (forall ((Time1 Int) (Fluent tptp.fluent) (Time2 Int)) (= (tptp.stoppedIn (tptp.at_time Time1) Fluent (tptp.at_time Time2)) (exists ((Event tptp.event) (Time Int)) (let ((_let_1 (tptp.at_time Time))) (and (tptp.happens Event _let_1) (< Time1 Time) (< Time Time2) (tptp.terminates Event Fluent _let_1)))))))
(assert (forall ((Time1 Int) (Fluent tptp.fluent) (Time2 Int)) (= (tptp.startedIn (tptp.at_time Time1) Fluent (tptp.at_time Time2)) (exists ((Event tptp.event) (Time Int)) (let ((_let_1 (tptp.at_time Time))) (and (tptp.happens Event _let_1) (< Time1 Time) (< Time Time2) (tptp.initiates Event Fluent _let_1)))))))
(assert (forall ((Event tptp.event) (Time Int) (Fluent tptp.fluent) (Fluent2 tptp.fluent) (Offset Int)) (let ((_let_1 (tptp.at_time (+ Time Offset)))) (let ((_let_2 (tptp.at_time Time))) (=> (and (tptp.happens Event _let_2) (tptp.initiates Event Fluent _let_2) (< 0 Offset) (tptp.trajectory Fluent _let_2 Fluent2 Offset) (not (tptp.stoppedIn _let_2 Fluent _let_1))) (tptp.holdsAt Fluent2 _let_1))))))
(assert (forall ((Event tptp.event) (Time1 Int) (Fluent1 tptp.fluent) (Time2 Int) (Fluent2 tptp.fluent)) (let ((_let_1 (tptp.at_time (+ Time1 Time2)))) (let ((_let_2 (tptp.at_time Time1))) (=> (and (tptp.happens Event _let_2) (tptp.terminates Event Fluent1 _let_2) (< 0 Time2) (tptp.antitrajectory Fluent1 _let_2 Fluent2 Time2) (not (tptp.startedIn _let_2 Fluent1 _let_1))) (tptp.holdsAt Fluent2 _let_1))))))
(assert (forall ((Fluent tptp.fluent) (Time Int)) (let ((_let_1 (tptp.at_time (+ Time 1)))) (=> (and (tptp.holdsAt Fluent (tptp.at_time Time)) (not (tptp.releasedAt Fluent _let_1)) (not (exists ((Event tptp.event)) (let ((_let_1 (tptp.at_time Time))) (and (tptp.happens Event _let_1) (tptp.terminates Event Fluent _let_1)))))) (tptp.holdsAt Fluent _let_1)))))
(assert (forall ((Fluent tptp.fluent) (Time Int)) (let ((_let_1 (tptp.at_time (+ Time 1)))) (=> (and (not (tptp.holdsAt Fluent (tptp.at_time Time))) (not (tptp.releasedAt Fluent _let_1)) (not (exists ((Event tptp.event)) (let ((_let_1 (tptp.at_time Time))) (and (tptp.happens Event _let_1) (tptp.initiates Event Fluent _let_1)))))) (not (tptp.holdsAt Fluent _let_1))))))
(assert (forall ((Fluent tptp.fluent) (Time Int)) (=> (and (tptp.releasedAt Fluent (tptp.at_time Time)) (not (exists ((Event tptp.event)) (let ((_let_1 (tptp.at_time Time))) (and (tptp.happens Event _let_1) (or (tptp.initiates Event Fluent _let_1) (tptp.terminates Event Fluent _let_1))))))) (tptp.releasedAt Fluent (tptp.at_time (+ Time 1))))))
(assert (forall ((Fluent tptp.fluent) (Time Int)) (=> (and (not (tptp.releasedAt Fluent (tptp.at_time Time))) (not (exists ((Event tptp.event)) (let ((_let_1 (tptp.at_time Time))) (and (tptp.happens Event _let_1) (tptp.releases Event Fluent _let_1)))))) (not (tptp.releasedAt Fluent (tptp.at_time (+ Time 1)))))))
(assert (forall ((Event tptp.event) (Time Int) (Fluent tptp.fluent)) (let ((_let_1 (tptp.at_time Time))) (=> (and (tptp.happens Event _let_1) (tptp.initiates Event Fluent _let_1)) (tptp.holdsAt Fluent (tptp.at_time (+ Time 1)))))))
(assert (forall ((Event tptp.event) (Time Int) (Fluent tptp.fluent)) (let ((_let_1 (tptp.at_time Time))) (=> (and (tptp.happens Event _let_1) (tptp.terminates Event Fluent _let_1)) (not (tptp.holdsAt Fluent (tptp.at_time (+ Time 1))))))))
(assert (forall ((Event tptp.event) (Time Int) (Fluent tptp.fluent)) (let ((_let_1 (tptp.at_time Time))) (=> (and (tptp.happens Event _let_1) (tptp.releases Event Fluent _let_1)) (tptp.releasedAt Fluent (tptp.at_time (+ Time 1)))))))
(assert (forall ((Event tptp.event) (Time Int) (Fluent tptp.fluent)) (let ((_let_1 (tptp.at_time Time))) (=> (and (tptp.happens Event _let_1) (or (tptp.initiates Event Fluent _let_1) (tptp.terminates Event Fluent _let_1))) (not (tptp.releasedAt Fluent (tptp.at_time (+ Time 1))))))))

(declare-fun tptp.waterLevel (Int) tptp.fluent)
(declare-fun tptp.tapOn () tptp.event)
(declare-fun tptp.tapOff () tptp.event)
(declare-fun tptp.overflow () tptp.event)
(declare-fun tptp.spilling () tptp.fluent)
(declare-fun tptp.filling () tptp.fluent)
(assert (not (= tptp.tapOn tptp.tapOff)))
(assert (not (= tptp.tapOn tptp.overflow)))
(assert (not (= tptp.tapOff tptp.overflow)))
(assert (forall ((X Int)) (not (= tptp.filling (tptp.waterLevel X)))))
(assert (forall ((X Int)) (not (= tptp.spilling (tptp.waterLevel X)))))
(assert (not (= tptp.filling tptp.spilling)))
(assert (forall ((X Int) (Y Int)) (= (= (tptp.waterLevel X) (tptp.waterLevel Y)) (= X Y))))
(assert (forall ((Event tptp.event) (Fluent tptp.fluent) (Time Int)) (= (tptp.initiates Event Fluent (tptp.at_time Time)) (or (and (= Event tptp.tapOn) (= Fluent tptp.filling)) (and (= Event tptp.overflow) (= Fluent tptp.spilling)) (exists ((Height Int)) (let ((_let_1 (tptp.waterLevel Height))) (and (tptp.holdsAt _let_1 (tptp.at_time Time)) (= Event tptp.tapOff) (= Fluent _let_1)))) (exists ((Height Int)) (let ((_let_1 (tptp.waterLevel Height))) (and (tptp.holdsAt _let_1 (tptp.at_time Time)) (= Event tptp.overflow) (= Fluent _let_1))))))))
(assert (forall ((Event tptp.event) (Fluent tptp.fluent) (Time Int)) (let ((_let_1 (= Fluent tptp.filling))) (= (tptp.terminates Event Fluent (tptp.at_time Time)) (or (and (= Event tptp.tapOff) _let_1) (and (= Event tptp.overflow) _let_1))))))
(assert (forall ((Event tptp.event) (Fluent tptp.fluent) (Time Int)) (= (tptp.releases Event Fluent (tptp.at_time Time)) (exists ((Height Int)) (and (= Event tptp.tapOn) (= Fluent (tptp.waterLevel Height)))))))
(assert (forall ((Height1 Int) (Time Int) (Height2 Int) (Offset Int)) (let ((_let_1 (tptp.at_time Time))) (=> (and (tptp.holdsAt (tptp.waterLevel Height1) _let_1) (= Height2 (+ Height1 Offset))) (tptp.trajectory tptp.filling _let_1 (tptp.waterLevel Height2) Offset)))))
(assert (forall ((Time Int) (Height1 Int) (Height2 Int)) (let ((_let_1 (tptp.at_time Time))) (=> (and (tptp.holdsAt (tptp.waterLevel Height1) _let_1) (tptp.holdsAt (tptp.waterLevel Height2) _let_1)) (= Height1 Height2)))))
(assert (forall ((Event tptp.event) (Time Int)) (let ((_let_1 (tptp.at_time Time))) (= (tptp.happens Event _let_1) (or (and (= Event tptp.tapOn) (= Time 0)) (and (tptp.holdsAt (tptp.waterLevel 3) _let_1) (tptp.holdsAt tptp.filling _let_1) (= Event tptp.overflow)))))))
(assert (tptp.holdsAt (tptp.waterLevel 0) (tptp.at_time 0)))
(assert (not (tptp.holdsAt tptp.filling (tptp.at_time 0))))
(assert (not (tptp.holdsAt tptp.spilling (tptp.at_time 0))))
(assert (forall ((Height Int)) (not (tptp.releasedAt (tptp.waterLevel Height) (tptp.at_time 0)))))
(assert (not (tptp.releasedAt tptp.filling (tptp.at_time 0))))
(assert (not (tptp.releasedAt tptp.spilling (tptp.at_time 0))))
(assert (not (forall ((X1 Int)) (let ((_let_1 (tptp.at_time X1))) (=> (tptp.holdsAt tptp.filling (tptp.at_time (+ 1 X1))) (or (= X1 0) (tptp.releasedAt tptp.filling _let_1) (tptp.holdsAt tptp.filling _let_1)))))))
(check-sat)
